Route 1: 0 50 92 18 32 97 13 0
Route 2: 0 30 7 17 6 14 89 83 65 47 58 26 67 0
Route 3: 0 100 77 28 78 99 42 87 0
Route 4: 0 12 74 88 96 44 9 52 68 98 0
Route 5: 0 5 15 80 38 93 20 0
Route 6: 0 72 59 81 8 24 19 86 55 95 62 0
Route 7: 0 34 31 25 21 71 56 61 0
Route 8: 0 73 48 69 41 76 16 0
Route 9: 0 54 10 29 11 70 46 94 4 82 0
Route 10: 0 63 1 49 79 75 27 91 22 51 64 57 0
Route 11: 0 43 60 85 40 84 66 36 90 45 35 0
Route 12: 0 37 2 39 33 53 3 23 0
